200
120
100
100
100
100
99
99
99
98
98
97
95
95
95
94
93
92
92
92
92
91
91
88
87
87
86
86
85
84
84
84
83
83
82
82
82
81
81
81
80
80
79
78
78
77
76
76
76
75
74
74
74
73
72
70
69
68
68
67
67
67
67
67
67
66
66
66
65
65
65
65
65
65
64
64
64
63
63
63
62
61
60
59
59
59
58
58
58
57
57
57
56
56
56
56
55
55
54
54
54
53
53
52
52
51
50
50
50
49
49
49
48
47
47
46
46
45
45
45
44
44
44
43
43
43
41
41
41
39
38
37
36
36
36
36
36
36
35
35
35
34
33
33
32
31
31
30
30
29
29
29
29
29
28
28
26
26
26
26
26
25
25
25
24
23
23
21
20
20
20
20
20
19
19
19
18
18
17
16
15
15
15
13
12
11
10
9
9
9
8
7
7
7
5
4
3
3
2
2
1
1
